; benchmark generated from python API
(set-info :status unknown)
(declare-fun x_month () Int)
(declare-fun x_day () Int)
(declare-fun x_year () Int)
(declare-fun y_month () Int)
(declare-fun y_day () Int)
(declare-fun y_year () Int)
(assert
 (>= x_month 1))
(assert
 (<= x_month 12))
(assert
 (>= x_day 1))
(assert
 (<= x_day 31))
(assert
 (let (($x819 (<= x_day 28)))
 (let (($x139 (<= x_day 29)))
 (let (($x759 (= (mod x_year 400) 0)))
 (let (($x583 (= (mod x_year 4) 0)))
 (let (($x138 (ite (or (and $x583 (and (distinct (mod x_year 100) 0) true)) $x759) $x139 $x819)))
 (let (($x277 (= x_month 2)))
 (ite $x277 $x138 true))))))))
(assert
 (let (($x413 (<= x_day 30)))
 (let (($x587 (= x_month 6)))
 (let (($x748 (or (= x_month 4) $x587 (= x_month 9) (= x_month 11))))
 (ite $x748 $x413 true)))))
(assert
 (>= y_month 1))
(assert
 (<= y_month 12))
(assert
 (>= y_day 1))
(assert
 (<= y_day 31))
(assert
 (let (($x831 (<= y_day 28)))
 (let (($x434 (<= y_day 29)))
 (let (($x243 (= (mod y_year 400) 0)))
 (let (($x607 (= (mod y_year 4) 0)))
 (let (($x683 (ite (or (and $x607 (and (distinct (mod y_year 100) 0) true)) $x243) $x434 $x831)))
 (let (($x817 (= y_month 2)))
 (ite $x817 $x683 true))))))))
(assert
 (let (($x186 (<= y_day 30)))
 (let (($x106 (= y_month 6)))
 (let (($x775 (or (= y_month 4) $x106 (= y_month 9) (= y_month 11))))
 (ite $x775 $x186 true)))))
(assert
 (let (($x558 (= x_year 2023)))
 (let (($x200 (and $x558 (or (> x_month 6) (and (= x_month 6) (>= x_day 1))))))
 (or (> x_year 2023) $x200))))
(assert
 (let (($x372 (or (= (+ (mod (- (+ x_month 1) 1) 12) 1) 4) (= (+ (mod (- (+ x_month 1) 1) 12) 1) 6) (= (+ (mod (- (+ x_month 1) 1) 12) 1) 9) (= (+ (mod (- (+ x_month 1) 1) 12) 1) 11))))
 (let ((?x212 (+ (+ x_year 0) (div (- (+ x_month 1) 1) 12))))
 (let (($x661 (or (and (= (mod ?x212 4) 0) (and (distinct (mod ?x212 100) 0) true)) (= (mod ?x212 400) 0))))
 (let ((?x207 (ite (= (+ (mod (- (+ x_month 1) 1) 12) 1) 2) (ite $x661 29 28) (ite $x372 30 31))))
 (let ((?x276 (ite (< x_day 1) 1 (ite (> x_day ?x207) ?x207 x_day))))
 (let ((?x320 (ite (< ?x276 1) 1 (ite (> ?x276 ?x207) ?x207 ?x276))))
 (let (($x261 (and (= (mod (+ ?x212 (* (div 0 146097) 400)) 4) 0) (and (distinct (mod (+ ?x212 (* (div 0 146097) 400)) 100) 0) true))))
 (let (($x231 (or $x261 (= (mod (+ ?x212 (* (div 0 146097) 400)) 400) 0))))
 (let ((?x245 (ite (= 1 (+ (mod (- (+ x_month 1) 1) 12) 1)) (ite $x231 0 0) 0)))
 (let ((?x236 (ite (= 2 (+ (mod (- (+ x_month 1) 1) 12) 1)) (ite $x231 31 31) ?x245)))
 (let ((?x771 (ite (= 3 (+ (mod (- (+ x_month 1) 1) 12) 1)) (ite $x231 60 59) ?x236)))
 (let ((?x444 (ite (= 4 (+ (mod (- (+ x_month 1) 1) 12) 1)) (ite $x231 91 90) ?x771)))
 (let ((?x614 (ite (= 5 (+ (mod (- (+ x_month 1) 1) 12) 1)) (ite $x231 121 120) ?x444)))
 (let ((?x522 (ite (= 6 (+ (mod (- (+ x_month 1) 1) 12) 1)) (ite $x231 152 151) ?x614)))
 (let ((?x180 (ite (= 7 (+ (mod (- (+ x_month 1) 1) 12) 1)) (ite $x231 182 181) ?x522)))
 (let ((?x159 (ite (= 8 (+ (mod (- (+ x_month 1) 1) 12) 1)) (ite $x231 213 212) ?x180)))
 (let ((?x189 (ite (= 9 (+ (mod (- (+ x_month 1) 1) 12) 1)) (ite $x231 244 243) ?x159)))
 (let ((?x615 (ite (= 10 (+ (mod (- (+ x_month 1) 1) 12) 1)) (ite $x231 274 273) ?x189)))
 (let ((?x2076 (ite (= 11 (+ (mod (- (+ x_month 1) 1) 12) 1)) (ite $x231 305 304) ?x615)))
 (let ((?x317 (ite (= 12 (+ (mod (- (+ x_month 1) 1) 12) 1)) (ite $x231 335 334) ?x2076)))
 (let ((?x495 (+ (* 365 (- (+ ?x212 (* (div 0 146097) 400)) 1)) (div (- (+ ?x212 (* (div 0 146097) 400)) 1) 4))))
 (let ((?x503 (+ (- ?x495 (div (- (+ ?x212 (* (div 0 146097) 400)) 1) 100)) (div (- (+ ?x212 (* (div 0 146097) 400)) 1) 400))))
 (let ((?x375 (+ (+ (+ ?x503 ?x317) (- ?x320 1)) (mod 0 146097))))
 (let ((?x265 (mod ?x375 146097)))
 (let ((?x792 (div ?x265 36524)))
 (let ((?x429 (ite (<= 4 ?x792) 3 ?x792)))
 (let ((?x229 (- ?x265 (* ?x429 36524))))
 (let ((?x341 (mod ?x229 1461)))
 (let ((?x431 (div ?x341 365)))
 (let ((?x428 (ite (<= 4 ?x431) 3 ?x431)))
 (let ((?x983 (+ (+ (* (div ?x375 146097) 400) (* ?x429 100)) (* (div ?x229 1461) 4))))
 (let ((?x337 (+ (+ ?x983 ?x428) 1)))
 (let (($x281 (or (and (= (mod ?x337 4) 0) (and (distinct (mod ?x337 100) 0) true)) (= (mod ?x337 400) 0))))
 (let ((?x170 (- ?x341 (* ?x428 365))))
 (let ((?x228 (ite $x281 31 31)))
 (let (($x2534 (>= ?x170 ?x228)))
 (let ((?x473 (ite $x2534 (+ (- ?x170 ?x228) 1) (+ (- ?x170 (ite $x281 0 0)) 1))))
 (let ((?x491 (ite $x281 60 59)))
 (let (($x533 (>= ?x170 ?x491)))
 (let ((?x636 (ite $x281 91 90)))
 (let (($x596 (>= ?x170 ?x636)))
 (let ((?x497 (ite $x596 (+ (- ?x170 ?x636) 1) (ite $x533 (+ (- ?x170 ?x491) 1) ?x473))))
 (let ((?x336 (ite $x281 121 120)))
 (let (($x645 (>= ?x170 ?x336)))
 (let ((?x595 (ite $x281 152 151)))
 (let (($x249 (>= ?x170 ?x595)))
 (let ((?x156 (ite $x249 (+ (- ?x170 ?x595) 1) (ite $x645 (+ (- ?x170 ?x336) 1) ?x497))))
 (let ((?x572 (ite $x281 182 181)))
 (let (($x562 (>= ?x170 ?x572)))
 (let ((?x490 (ite $x281 213 212)))
 (let (($x280 (>= ?x170 ?x490)))
 (let ((?x537 (ite $x280 (+ (- ?x170 ?x490) 1) (ite $x562 (+ (- ?x170 ?x572) 1) ?x156))))
 (let ((?x585 (ite $x281 244 243)))
 (let (($x475 (>= ?x170 ?x585)))
 (let ((?x591 (ite $x281 274 273)))
 (let (($x844 (>= ?x170 ?x591)))
 (let ((?x233 (ite $x844 (+ (- ?x170 ?x591) 1) (ite $x475 (+ (- ?x170 ?x585) 1) ?x537))))
 (let ((?x1668 (ite $x281 305 304)))
 (let (($x482 (>= ?x170 ?x1668)))
 (let ((?x442 (ite $x281 335 334)))
 (let (($x530 (>= ?x170 ?x442)))
 (let ((?x366 (ite $x530 (+ (- ?x170 ?x442) 1) (ite $x482 (+ (- ?x170 ?x1668) 1) ?x233))))
 (let (($x747 (= 0 0)))
 (let ((?x498 (ite $x747 ?x320 ?x366)))
 (let ((?x275 (ite $x645 5 (ite $x596 4 (ite $x533 3 (ite $x2534 2 1))))))
 (let ((?x604 (ite $x475 9 (ite $x280 8 (ite $x562 7 (ite $x249 6 ?x275))))))
 (let ((?x477 (+ (mod (- (+ x_month 1) 1) 12) 1)))
 (let ((?x251 (+ (ite $x747 ?x477 (ite $x530 12 (ite $x482 11 (ite $x844 10 ?x604)))) 0)))
 (let ((?x292 (- ?x251 1)))
 (let ((?x494 (+ (mod ?x292 12) 1)))
 (let ((?x253 (ite (or (= ?x494 4) (= ?x494 6) (= ?x494 9) (= ?x494 11)) 30 31)))
 (let (($x176 (= (mod (+ (+ (ite $x747 ?x212 ?x337) 0) (div ?x292 12)) 400) 0)))
 (let (($x812 (and (distinct (mod (+ (+ (ite $x747 ?x212 ?x337) 0) (div ?x292 12)) 100) 0) true)))
 (let (($x1157 (= (mod (+ (+ (ite $x747 ?x212 ?x337) 0) (div ?x292 12)) 4) 0)))
 (let ((?x190 (ite (= ?x494 2) (ite (or (and $x1157 $x812) $x176) 29 28) ?x253)))
 (let ((?x862 (ite (< ?x498 1) 1 (ite (> ?x498 ?x190) ?x190 ?x498))))
 (let ((?x408 (ite (< ?x862 1) 1 (ite (> ?x862 ?x190) ?x190 ?x862))))
 (let ((?x458 (+ (+ (ite $x747 ?x212 ?x337) 0) (div ?x292 12))))
 (let ((?x617 (+ ?x458 (* (div 15 146097) 400))))
 (let (($x370 (or (and (= (mod ?x617 4) 0) (and (distinct (mod ?x617 100) 0) true)) (= (mod ?x617 400) 0))))
 (let ((?x531 (ite (= 2 ?x494) (ite $x370 31 31) (ite (= 1 ?x494) (ite $x370 0 0) 0))))
 (let ((?x609 (ite (= 4 ?x494) (ite $x370 91 90) (ite (= 3 ?x494) (ite $x370 60 59) ?x531))))
 (let ((?x2064 (ite (= 6 ?x494) (ite $x370 152 151) (ite (= 5 ?x494) (ite $x370 121 120) ?x609))))
 (let ((?x693 (ite (= 8 ?x494) (ite $x370 213 212) (ite (= 7 ?x494) (ite $x370 182 181) ?x2064))))
 (let ((?x541 (ite (= 10 ?x494) (ite $x370 274 273) (ite (= 9 ?x494) (ite $x370 244 243) ?x693))))
 (let ((?x500 (ite (= 12 ?x494) (ite $x370 335 334) (ite (= 11 ?x494) (ite $x370 305 304) ?x541))))
 (let ((?x115 (- (+ (* 365 (- ?x617 1)) (div (- ?x617 1) 4)) (div (- ?x617 1) 100))))
 (let ((?x958 (+ (+ (+ (+ ?x115 (div (- ?x617 1) 400)) ?x500) (- ?x408 1)) (mod 15 146097))))
 (let ((?x2514 (mod ?x958 146097)))
 (let ((?x100 (div ?x2514 36524)))
 (let ((?x122 (ite (<= 4 ?x100) 3 ?x100)))
 (let ((?x404 (- ?x2514 (* ?x122 36524))))
 (let ((?x656 (mod ?x404 1461)))
 (let ((?x368 (div ?x656 365)))
 (let ((?x729 (ite (<= 4 ?x368) 3 ?x368)))
 (let ((?x114 (+ (+ (* (div ?x958 146097) 400) (* ?x122 100)) (* (div ?x404 1461) 4))))
 (let ((?x240 (+ (+ ?x114 ?x729) 1)))
 (let (($x449 (or (and (= (mod ?x240 4) 0) (and (distinct (mod ?x240 100) 0) true)) (= (mod ?x240 400) 0))))
 (let ((?x554 (- ?x656 (* ?x729 365))))
 (let ((?x125 (ite $x449 31 31)))
 (let (($x420 (>= ?x554 ?x125)))
 (let ((?x390 (ite $x420 (+ (- ?x554 ?x125) 1) (+ (- ?x554 (ite $x449 0 0)) 1))))
 (let ((?x109 (ite $x449 60 59)))
 (let (($x2649 (>= ?x554 ?x109)))
 (let ((?x296 (ite $x449 91 90)))
 (let (($x2621 (>= ?x554 ?x296)))
 (let ((?x2960 (ite $x2621 (+ (- ?x554 ?x296) 1) (ite $x2649 (+ (- ?x554 ?x109) 1) ?x390))))
 (let ((?x552 (ite $x449 121 120)))
 (let (($x711 (>= ?x554 ?x552)))
 (let ((?x632 (ite $x449 152 151)))
 (let (($x665 (>= ?x554 ?x632)))
 (let ((?x1507 (ite $x665 (+ (- ?x554 ?x632) 1) (ite $x711 (+ (- ?x554 ?x552) 1) ?x2960))))
 (let ((?x803 (ite $x449 182 181)))
 (let (($x2089 (>= ?x554 ?x803)))
 (let ((?x809 (ite $x449 213 212)))
 (let (($x443 (>= ?x554 ?x809)))
 (let ((?x2606 (ite $x443 (+ (- ?x554 ?x809) 1) (ite $x2089 (+ (- ?x554 ?x803) 1) ?x1507))))
 (let ((?x760 (ite $x449 244 243)))
 (let (($x2477 (>= ?x554 ?x760)))
 (let ((?x462 (ite $x449 274 273)))
 (let (($x1148 (>= ?x554 ?x462)))
 (let ((?x471 (ite $x1148 (+ (- ?x554 ?x462) 1) (ite $x2477 (+ (- ?x554 ?x760) 1) ?x2606))))
 (let ((?x505 (ite $x449 305 304)))
 (let (($x776 (>= ?x554 ?x505)))
 (let ((?x322 (ite $x449 335 334)))
 (let (($x3010 (>= ?x554 ?x322)))
 (let ((?x1648 (ite $x3010 (+ (- ?x554 ?x322) 1) (ite $x776 (+ (- ?x554 ?x505) 1) ?x471))))
 (let (($x601 (= 0 15)))
 (let ((?x815 (ite $x711 5 (ite $x2621 4 (ite $x2649 3 (ite $x420 2 1))))))
 (let ((?x2650 (ite $x2477 9 (ite $x443 8 (ite $x2089 7 (ite $x665 6 ?x815))))))
 (let ((?x2525 (ite $x3010 12 (ite $x776 11 (ite $x1148 10 ?x2650)))))
 (and (= (ite $x601 ?x458 ?x240) y_year) (= (ite $x601 ?x494 ?x2525) y_month) (= (ite $x601 ?x408 ?x1648) y_day))))))))))))))))))))))))))))))))))))))))))))))))))))))))))))))))))))))))))))))))))))))))))))))))))))))))))))))))))))))))))))))))))))))
(assert
 (let (($x373 (= y_year 2023)))
(let (($x795 (and $x373 (or (> y_month 6) (and (= y_month 6) (>= y_day 1))))))
(or (> y_year 2023) $x795))))
(check-sat)
